c Random generated cnf formula, satisfiable: false
p cnf 10 50
-8 -6 -1 0
4 5 10 0
-9 8 -4 0
3 4 9 0
-5 -4 7 0
2 -5 -6 0
3 -2 -7 0
-1 5 -6 0
-2 -9 -6 0
10 -8 1 0
3 -7 6 0
-5 -4 6 0
-10 6 -9 0
7 -10 -1 0
-2 4 3 0
-7 9 3 0
-9 -5 -2 0
4 -7 9 0
-8 -4 5 0
6 7 -9 0
4 -8 -5 0
-1 -2 -5 0
9 -10 6 0
-2 -5 -6 0
6 8 3 0
4 2 -9 0
-3 7 8 0
4 3 5 0
-3 -8 -7 0
-7 -6 -5 0
1 -4 -9 0
10 6 3 0
4 7 6 0
9 1 8 0
-7 10 9 0
-2 8 -10 0
-9 4 7 0
-5 -7 -3 0
9 -5 10 0
4 -3 -7 0
3 -7 -6 0
-5 2 -9 0
9 7 -10 0
-5 -7 -9 0
-10 -1 -4 0
6 9 10 0
-7 -8 4 0
-8 -5 3 0
-8 -6 9 0
8 6 -3 0
